/* Objective function */
min: - 0.0054fpdi - 0.0054fpdo + 0.05apdi + 0.05apdo + 0.0002pi + 0.0002po - 0.5fsi - 0.5fso;

apdi = 0.0 hi + 0.0 li + 10.6381 ri + -0.0044 ci + -1.50756 si + 0.0 ti + 0.11874 fTempIi + 0.0047 ami + -121.10523;
asi = 0.0 hi + -0.0 li + 0.0 ri + 0.0 ci + 0.0 si + -0.0 ti + -0.0 fTempIi + 5e-05 ami + 0.00857;
aTempOi = 0.0 hi + 0.0 li + 0.30346 ri + -0.03593 ci + -0.04162 si + 0.0 ti + 0.76623 fTempIi + -0.00015 ami + 6.87574;
fpdi = 0.0 hi + -0.0 li + 11.76007 ri + -11.28999 ci + -0.02078 si + -0.0 ti + -0.64121 fTempIi + 7e-05 ami + 330.81193;
fsi = 0.0 hi + -0.0 li + -0.0001 ri + -0.0403 ci + 1e-05 si + 0.0 ti + 0.00049 fTempIi + -0.0 ami + 2.24455;
fTempOi = 0.0 hi + 0.0 li + -0.30066 ri + 0.03583 ci + 0.04121 si + 0.0 ti + 0.24943 fTempIi + -0.00014 ami + 9.54579;
pi = 0.0 hi + 0.0 li + 502.0375 ri + 3.13714 ci + -52.21267 si + 0.0 ti + 0.0 fTempIi + 0.0 ami + 2629.42167;

apdo = 0.0 ho + -0.0 lo + 12.84663 ro + 0.00712 co + -1.93205 so + -0.0 to + 0.12154 fTempIo + 0.00557 amo + -159.71339;
aso = 0.0 ho + 0.0 lo + -0.0 ro + 0.0 co + 0.0 so + -0.0 to + -0.0 fTempIo + 5e-05 amo + 0.00857;
aTempOo = 0.0 ho + -0.0 lo + -0.32522 ro + 0.04069 co + 0.0581 so + 0.0 to + 0.73773 fTempIo + 0.00017 amo + -0.15588;
fpdo = 0.0 ho + -0.0 lo + 11.46932 ro + -11.2463 co + 0.02873 so + -0.0 to + -0.64983 fTempIo + -8e-05 amo + 328.92927;
fso = 0.0 ho + 0.0 lo + 0.00013 ro + -0.04031 co + -2e-05 so + -0.0 to + 0.00053 fTempIo + 0.0 amo + 2.24517;
fTempOo = 0.0 ho + -0.0 lo + 0.32025 ro + -0.04036 co + -0.05743 so + 0.0 to + 0.26883 fTempIo + 0.00014 amo + 12.5101;
po = 0.0 ho + -0.0 lo + 395.24722 ro + 3.13619 co + -35.35048 so + -0.0 to + 0.0 fTempIo + 0.0 amo + 1399.3573;

/* Variable bounds */
aTempOi > 18.6;
1 =r6i + r8i + r10i + r12i + r14i;
ri =6r6i + 8r8i + 10r10i + 12r12i + 14r14i;
1 =s30i + s40i + s50i + s60i;
si =30s30i + 40s40i + 50s50i + 60s60i;
ti = 3;
apdi > 100;
apdi < 300;
asi > 0;
asi < 3;
aTempOi > 5;
aTempOi < 25;
fpdi > 100;
fpdi < 300;
fsi > 0;
fsi < 1.25;
fTempOi > 5;
fTempOi < 25;
pi > 0;
ri > 6;
ri < 14;
ci > 23;
ci < 60;
si > 25;
si < 60;
ti > 1;
ti < 3;
fTempIi > 5;
fTempIi < 25;

/* aTempOo < 11.4; */
1 =r6o + r8o + r10o + r12o + r14o;
ro =6r6o + 8r8o + 10r10o + 12r12o + 14r14o;
1 =s25o + s30o + s40o;
so =25s25o + 30s30o + 40s40o;
to = 2;
apdo > 100;
apdo < 300;
aso > 0;
aso < 3;
aTempOo > 5;
aTempOo < 25;
fpdo > 100;
fpdo < 300;
fso > 0;
fso < 1.25;
fTempOo > 5;
fTempOo < 25;
po > 0;
ro > 6;
ro < 14;
co > 23;
co < 60;
so > 25;
so < 60;
to > 1;
to < 3;
fTempIo > 5;
fTempIo < 25;
int hi,li,si,ti,ci,ri,ami;
int ho,lo,so,to,co,ro,amo;
bin s25i,s30i,s40i,s50i,s60i,r6i,r8i,r10i,r12i,r14i;
bin s25o,s30o,s40o,s50o,s60o,r6o,r8o,r10o,r12o,r14o;
